! ================= 静态自洽 INCAR =================
! 结构优化完成后，用于获取准确的能量/电荷密度
ISTART  = 1
ICHARG  = 1
PREC    = Normal
LWAVE   = .T.
LCHARG  = .T.
ENCUT   = 500
EDIFF   = 1E-6
LREAL   = Auto
ISMEAR  = 0
SIGMA   = 0.2
NELM    = 100
NELMIN  = 5
ISPIN   = 2
NSW     = 0
IBRION  = -1
LORBIT  = 11

! = DOS 计算（按需追加） =
! NEDOS   = 3000
! EMIN    = -15
! EMAX    = 15
